<?xml version = "1.0" encoding="UTF-8" standalone="yes"?>
<CPLEXSolution version="1.2">
 <header
   problemName="IloCplex"
   solutionName="p0"
   solutionIndex="-1"
   objectiveValue="0"
   solutionTypeValue="3"
   solutionTypeString="primal"
   solutionStatusValue="127"
   solutionStatusString="integer feasible solution"
   solutionMethodString="mip"
   primalFeasible="0"
   dualFeasible="0"
   writeLevel="3"/>
 <quality
   epInt="1.0000000000000001e-05"
   epRHS="9.9999999999999995e-07"
   maxIntInfeas="0"
   maxPrimalInfeas="0"
   maxX="1"
   maxSlack="1"/>
 <variables>
  <variable name="x0_35" index="145" value="1"/>
  <variable name="x1_53" index="263" value="1"/>
  <variable name="x2_65" index="375" value="1"/>
  <variable name="x3_63" index="473" value="1"/>
  <variable name="x4_54" index="564" value="1"/>
  <variable name="x5_9" index="619" value="1"/>
  <variable name="x6_88" index="798" value="1"/>
  <variable name="x7_34" index="844" value="1"/>
  <variable name="x8_17" index="927" value="1"/>
  <variable name="x9_84" index="1094" value="1"/>
  <variable name="x10_56" index="1166" value="1"/>
  <variable name="x11_16" index="1226" value="1"/>
  <variable name="x12_19" index="1329" value="1"/>
  <variable name="x13_76" index="1486" value="1"/>
  <variable name="x14_86" index="1596" value="1"/>
  <variable name="x15_49" index="1659" value="1"/>
  <variable name="x16_30" index="1740" value="1"/>
  <variable name="x17_27" index="1837" value="1"/>
  <variable name="x18_60" index="1970" value="1"/>
  <variable name="x19_37" index="2047" value="1"/>
  <variable name="x20_78" index="2188" value="1"/>
  <variable name="x21_36" index="2246" value="1"/>
  <variable name="x22_45" index="2355" value="1"/>
  <variable name="x23_11" index="2421" value="1"/>
  <variable name="x24_62" index="2572" value="1"/>
  <variable name="x25_80" index="2690" value="1"/>
  <variable name="x26_24" index="2734" value="1"/>
  <variable name="x27_98" index="2908" value="1"/>
  <variable name="x28_13" index="2923" value="1"/>
  <variable name="x29_61" index="3071" value="1"/>
  <variable name="x30_48" index="3158" value="1"/>
  <variable name="x31_51" index="3261" value="1"/>
  <variable name="x32_22" index="3332" value="1"/>
  <variable name="x33_4" index="3414" value="1"/>
  <variable name="x34_2" index="3512" value="1"/>
  <variable name="x35_50" index="3660" value="1"/>
  <variable name="x36_57" index="3767" value="1"/>
  <variable name="x37_18" index="3828" value="1"/>
  <variable name="x38_26" index="3936" value="1"/>
  <variable name="x39_70" index="4080" value="1"/>
  <variable name="x40_83" index="4193" value="1"/>
  <variable name="x41_0" index="4210" value="1"/>
  <variable name="x42_44" index="4354" value="1"/>
  <variable name="x43_89" index="4499" value="1"/>
  <variable name="x44_7" index="4517" value="1"/>
  <variable name="x45_12" index="4622" value="1"/>
  <variable name="x46_25" index="4735" value="1"/>
  <variable name="x47_20" index="4830" value="1"/>
  <variable name="x48_15" index="4925" value="1"/>
  <variable name="x49_3" index="5013" value="1"/>
  <variable name="x50_1" index="5111" value="1"/>
  <variable name="x51_33" index="5243" value="1"/>
  <variable name="x52_71" index="5381" value="1"/>
  <variable name="x53_90" index="5500" value="1"/>
  <variable name="x54_55" index="5565" value="1"/>
  <variable name="x55_31" index="5641" value="1"/>
  <variable name="x56_47" index="5757" value="1"/>
  <variable name="x57_81" index="5891" value="1"/>
  <variable name="x58_68" index="5978" value="1"/>
  <variable name="x59_64" index="6074" value="1"/>
  <variable name="x60_23" index="6133" value="1"/>
  <variable name="x61_67" index="6277" value="1"/>
  <variable name="x62_41" index="6351" value="1"/>
  <variable name="x63_52" index="6462" value="1"/>
  <variable name="x64_10" index="6520" value="1"/>
  <variable name="x65_93" index="6703" value="1"/>
  <variable name="x66_58" index="6768" value="1"/>
  <variable name="x67_66" index="6876" value="1"/>
  <variable name="x68_77" index="6987" value="1"/>
  <variable name="x69_79" index="7089" value="1"/>
  <variable name="x70_40" index="7150" value="1"/>
  <variable name="x71_94" index="7304" value="1"/>
  <variable name="x72_29" index="7339" value="1"/>
  <variable name="x73_95" index="7505" value="1"/>
  <variable name="x74_87" index="7597" value="1"/>
  <variable name="x75_43" index="7653" value="1"/>
  <variable name="x76_85" index="7795" value="1"/>
  <variable name="x77_99" index="7909" value="1"/>
  <variable name="x78_46" index="7956" value="1"/>
  <variable name="x79_97" index="8107" value="1"/>
  <variable name="x80_21" index="8131" value="1"/>
  <variable name="x81_75" index="8285" value="1"/>
  <variable name="x82_28" index="8338" value="1"/>
  <variable name="x83_72" index="8482" value="1"/>
  <variable name="x84_91" index="8601" value="1"/>
  <variable name="x85_96" index="8706" value="1"/>
  <variable name="x86_42" index="8752" value="1"/>
  <variable name="x87_74" index="8884" value="1"/>
  <variable name="x88_6" index="8916" value="1"/>
  <variable name="x89_8" index="9018" value="1"/>
  <variable name="x90_5" index="9115" value="1"/>
  <variable name="x91_92" index="9302" value="1"/>
  <variable name="x92_82" index="9392" value="1"/>
  <variable name="x93_38" index="9448" value="1"/>
  <variable name="x94_69" index="9579" value="1"/>
  <variable name="x95_73" index="9683" value="1"/>
  <variable name="x96_59" index="9769" value="1"/>
  <variable name="x97_14" index="9824" value="1"/>
  <variable name="x98_39" index="9949" value="1"/>
  <variable name="x99_32" index="10042" value="1"/>
  <variable name="u1" index="10111" value="1"/>
  <variable name="u2" index="10112" value="1"/>
  <variable name="u4" index="10114" value="1"/>
  <variable name="u5" index="10115" value="1"/>
  <variable name="u6" index="10116" value="1"/>
  <variable name="u7" index="10117" value="1"/>
  <variable name="u8" index="10118" value="1"/>
 </variables>
</CPLEXSolution>
